experiment/data/lkh-res/Vrp-Set-X-n148/Vrp-Set-X-n148-lkh/0.lkh1.vrp
NAME : 0
COMMENT : CVRP Instance
TYPE : CVRP
DIMENSION : 148
EDGE_WEIGHT_TYPE : EUC_2D
CAPACITY : 18
NODE_COORD_SECTION
1	70700	63300
2	40500	12200
3	81100	41900
4	1100	66700
5	33600	61200
6	36600	5000
7	9800	83600
8	41400	99600
9	24300	71300
10	10000	23200
11	89100	94600
12	13200	20400
13	2500	64200
14	99400	1800
15	63600	89700
16	21400	65100
17	10800	61900
18	88200	39900
19	86300	60700
20	40900	58500
21	24700	88200
22	55300	50700
23	67700	25800
24	67300	64400
25	2500	18200
26	25100	11100
27	26300	79900
28	66000	35900
29	35100	28800
30	17200	12700
31	38200	44100
32	23100	65000
33	96600	48500
34	96400	10700
35	87600	16400
36	94900	32800
37	93600	7000
38	22900	74400
39	16100	21400
40	58100	59400
41	15400	86000
42	2300	37400
43	73600	60000
44	59400	54200
45	84600	68400
46	35500	47100
47	67500	59700
48	66300	65300
49	6100	88900
50	68500	15000
51	12900	24800
52	16100	30100
53	18000	83600
54	42700	67000
55	83300	86000
56	66900	25100
57	41100	40300
58	45000	92600
59	59100	50500
60	46800	15700
61	28800	48400
62	57400	95500
63	79500	52100
64	4100	6500
65	17500	48600
66	7400	43600
67	90700	1300
68	57900	91200
69	76500	83500
70	17600	18900
71	97200	35100
72	47000	2200
73	57700	46900
74	56100	67200
75	11000	67000
76	81100	61400
77	46000	34400
78	86200	48600
79	2200	36900
80	89800	29500
81	8900	93400
82	8900	97300
83	89600	54400
84	50300	36400
85	76500	46900
86	83200	50400
87	70200	48200
88	48100	32100
89	82700	62700
90	54100	59900
91	11100	69400
92	89100	23100
93	88400	32400
94	55500	43600
95	18600	50200
96	44200	31900
97	82300	25500
98	36700	33900
99	57200	87200
100	71500	62000
101	13400	79400
102	8500	91200
103	19100	56100
104	7900	91100
105	92400	50800
106	13200	87100
107	96200	68200
108	78300	51500
109	17000	67700
110	84700	46200
111	84000	53500
112	73200	38300
113	90400	36800
114	98000	37600
115	28100	66900
116	8400	80900
117	11400	71500
118	8300	64800
119	80000	54000
120	4500	94400
121	8400	96500
122	46500	40700
123	77900	42700
124	85400	30500
125	51800	50000
126	21600	72100
127	59700	64300
128	84700	50100
129	85900	29800
130	95400	76400
131	33900	81400
132	14200	55200
133	40000	36600
134	2100	34100
135	80200	48700
136	6700	77200
137	89700	55200
138	84700	53800
139	18900	53000
140	93000	23200
141	47200	39600
142	9200	32500
143	87700	47500
144	45100	37000
145	100	41600
146	71200	10000
147	86900	27000
148	10000	34200
DEMAND_SECTION
1	0
2	10
3	4
4	7
5	4
6	8
7	1
8	4
9	1
10	5
11	5
12	1
13	4
14	4
15	4
16	2
17	5
18	3
19	10
20	1
21	2
22	9
23	5
24	5
25	2
26	1
27	7
28	10
29	5
30	10
31	10
32	2
33	9
34	1
35	10
36	9
37	2
38	3
39	4
40	4
41	9
42	10
43	5
44	4
45	10
46	1
47	5
48	8
49	5
50	1
51	6
52	10
53	1
54	6
55	4
56	3
57	7
58	2
59	8
60	6
61	4
62	4
63	2
64	3
65	5
66	6
67	4
68	8
69	2
70	3
71	3
72	5
73	6
74	10
75	8
76	8
77	4
78	6
79	5
80	1
81	5
82	9
83	2
84	8
85	7
86	6
87	5
88	6
89	7
90	10
91	10
92	10
93	1
94	9
95	3
96	10
97	3
98	7
99	2
100	8
101	2
102	5
103	1
104	6
105	4
106	9
107	10
108	8
109	5
110	6
111	4
112	1
113	10
114	9
115	5
116	8
117	6
118	6
119	8
120	5
121	5
122	7
123	9
124	6
125	2
126	3
127	2
128	4
129	7
130	6
131	9
132	2
133	10
134	5
135	6
136	6
137	7
138	7
139	7
140	8
141	9
142	7
143	2
144	6
145	10
146	3
147	10
148	5
DEPOT_SECTION
1
-1
EOF
