experiment/data/lkh-res/Vrp-Set-X-n148/Vrp-Set-X-n148-lkh/0.lkh1.tour
NAME : 0.4367726.tour
COMMENT : Length = 4367726
COMMENT : Found by LKH-3 [Keld Helsgaun] Tue Apr  9 03:24:18 2024
TYPE : TOUR
DIMENSION : 193
TOUR_SECTION
1
61
65
139
103
20
166
29
30
70
165
111
138
137
174
83
105
33
143
181
71
34
14
67
37
97
188
57
31
158
108
63
119
155
52
39
77
157
104
120
81
58
167
90
59
168
66
145
132
154
89
107
187
41
106
163
74
40
44
159
133
98
150
43
135
85
169
117
91
16
183
21
102
49
7
101
38
193
100
45
161
129
147
170
93
80
92
124
186
2
60
152
18
113
128
172
9
4
13
118
185
112
50
146
72
6
178
26
64
25
10
12
51
164
19
76
153
127
27
131
151
47
48
24
149
126
136
116
53
189
15
62
68
99
190
28
56
23
179
140
35
176
69
55
11
130
192
54
115
32
5
171
86
78
110
180
125
122
141
160
121
82
8
156
95
42
79
191
36
114
182
3
123
87
162
109
75
17
184
94
22
173
46
148
142
134
177
144
88
73
175
96
84
-1
EOF
